50	100	100	100
42	16	34
95	50	88
91	56	59
82	41	53
32	69	8
71	29	89
40	57	18
53	54	10
77	73	8
27	58	85
73	49	26
48	10	60
12	6	60
92	48	85
62	39	18
95	35	65
50	27	82
62	71	44
66	47	72
29	75	7
27	31	66
87	22	62
75	6	77
81	95	51
55	77	22
60	72	29
23	6	42
94	99	41
38	44	9
62	82	51
40	66	16
7	51	77
27	15	35
11	66	24
27	17	46
98	65	8
61	32	67
81	10	69
16	36	40
6	57	34
28	90	60
7	77	31
44	56	99
8	64	52
26	46	52
42	3	23
77	13	76
26	25	10
31	62	97
55	39	4
